40
    66    83     4    64    29    66    54     6    82    80    92    79    88    52    84    24    44    60    75    83    68    36    88     2    13    64    25    29    54    84    65    17    99    85    65    22    81    11    62   100
     9     8     7     5     2     4     6     8     3     1     7     9     5     4     5     8     4    10    10     1     1     7     4     1     6     3     3     4     9     9     6     6     7     3     7     5     5     9     2     7
  1480  1684  1474  1438  1532   931  1041  1110  1219  1826  1694   998  1607  1400  1174  1018  1033   961  1708  1405  1424  1264  1014  1314  1350  1797  1122  1531  1424  1441  1208  1252  1022  1410   938  1703   933  1338  1518  1090
